(set-logic QF_SLIA)
(declare-fun var0 () String)
(assert (not (str.in_re var0 (re.++ ((_ re.loop 3 763) (re.++ (re.union (str.to_re "wH") (re.union (str.to_re "J1") (re.union (str.to_re "A.!") (str.to_re "&c6")))) (re.++ (re.union (str.to_re "+k") (re.union (str.to_re "YiI") (re.union (str.to_re "`i") (str.to_re "m$V")))) (re.++ (re.union (str.to_re "0") (re.union (str.to_re "U?") (re.union (str.to_re "Y") (str.to_re "e")))) (re.union (str.to_re ")") (re.union (str.to_re "OX") (re.union (str.to_re "oBt") (str.to_re "h>]")))))))) (re.++ ((_ re.loop 2 889) (re.++ (re.union (str.to_re "BH>") (re.union (str.to_re "V;") (re.union (str.to_re "b3") (str.to_re "g\u0022")))) (re.++ (re.union (str.to_re "P5") (re.union (str.to_re "\\Y") (re.union (str.to_re "'") (str.to_re "Di%")))) (re.++ (re.union (str.to_re "mI<") (re.union (str.to_re "g") (re.union (str.to_re "s") (str.to_re "{C>")))) (re.union (str.to_re "l") (re.union (str.to_re "vx") (re.union (str.to_re "p") (str.to_re "l")))))))) (re.++ ((_ re.loop 10 359) (re.++ (re.union (str.to_re "^zY") (re.union (str.to_re "g") (re.union (str.to_re "GEu") (str.to_re "^")))) (re.++ (re.union (str.to_re "&\u0022") (re.union (str.to_re "Fpb") (re.union (str.to_re "<r") (str.to_re "8")))) (re.++ (re.union (str.to_re "p") (re.union (str.to_re "|`") (re.union (str.to_re "^]") (str.to_re "Kzm")))) (re.union (str.to_re "W") (re.union (str.to_re "aS") (re.union (str.to_re "FC") (str.to_re "dI")))))))) ((_ re.loop 15 938) (re.++ (re.union (str.to_re "2'") (re.union (str.to_re ")p") (re.union (str.to_re "R9") (str.to_re "TS\\")))) (re.++ (re.union (str.to_re "b") (re.union (str.to_re "[\u0022C") (re.union (str.to_re "Uy") (str.to_re "l`Y")))) (re.++ (re.union (str.to_re "JK") (re.union (str.to_re "R") (re.union (str.to_re "^") (str.to_re "F+L")))) (re.union (str.to_re "tK") (re.union (str.to_re "2") (re.union (str.to_re "?") (str.to_re "3"))))))))))))))
(assert (not (str.in_re var0 (re.++ ((_ re.loop 1 618) (re.++ (re.union (str.to_re ":4o") (re.union (str.to_re "t") (re.union (str.to_re "L=") (str.to_re "Qmw")))) (re.++ (re.union (str.to_re "*1_") (re.union (str.to_re ":") (re.union (str.to_re "Gl") (str.to_re "o`")))) (re.++ (re.union (str.to_re "l") (re.union (str.to_re "l") (re.union (str.to_re "t") (str.to_re "%Mq")))) (re.union (str.to_re ":]U") (re.union (str.to_re "a") (re.union (str.to_re "x=l") (str.to_re "~T%")))))))) (re.++ ((_ re.loop 9 483) (re.++ (re.union (str.to_re "Go") (re.union (str.to_re "Zv") (re.union (str.to_re "y0.") (str.to_re "TJD")))) (re.++ (re.union (str.to_re "^") (re.union (str.to_re "j") (re.union (str.to_re "H-R") (str.to_re "iUU")))) (re.++ (re.union (str.to_re "5=/") (re.union (str.to_re "Gze") (re.union (str.to_re "N-%") (str.to_re "S")))) (re.union (str.to_re "m@#") (re.union (str.to_re ",h") (re.union (str.to_re "c") (str.to_re "9!J")))))))) (re.++ ((_ re.loop 10 276) (re.++ (re.union (str.to_re "xo") (re.union (str.to_re "=K") (re.union (str.to_re "2") (str.to_re ";d")))) (re.++ (re.union (str.to_re "(Ht") (re.union (str.to_re "JH|") (re.union (str.to_re "@n") (str.to_re "$~}")))) (re.++ (re.union (str.to_re "~") (re.union (str.to_re "n'r") (re.union (str.to_re "z") (str.to_re "X:;")))) (re.union (str.to_re "G+i") (re.union (str.to_re "}") (re.union (str.to_re ".t") (str.to_re "bC!")))))))) ((_ re.loop 2 481) (re.++ (re.union (str.to_re "f;.") (re.union (str.to_re "^An") (re.union (str.to_re "m_") (str.to_re ",")))) (re.++ (re.union (str.to_re ",O") (re.union (str.to_re "tg") (re.union (str.to_re "te") (str.to_re "]B")))) (re.++ (re.union (str.to_re "nk") (re.union (str.to_re "P") (re.union (str.to_re "`I") (str.to_re "1@")))) (re.union (str.to_re "O") (re.union (str.to_re "+y") (re.union (str.to_re "]:g") (str.to_re "\\aK"))))))))))))))
(assert (not (str.in_re var0 (re.++ (re.* re.allchar) (re.++ (re.union (str.to_re "<") (re.union (str.to_re ">") (re.union (str.to_re "'") (re.union (str.to_re "\u0022") (str.to_re "&"))))) (re.* re.allchar))))))
(assert (<= 50 (str.len var0)))
(check-sat)
(get-model)
